c 1 BASE
c 2 COMPRESS 
c 3 GZIP 
c 4 EXTRACT 
c 5 ARCHIVECHECK 
c 6 CRC 
c 7 ADLER32CHECKSUM 
c 8 DERIVATIVE_COMPRESS_ADLER32CHECKSUM 
c 9 DERIVATIVE_COMPRESS_CRC 
c 10 DERIVATIVE_COMPRESS_GZIP 
c 11 DERIVATIVE_COMPRESS_GZIPCRC
c 12 DERIVATIVE_EXTRACT_CRC
c 13 DERIVATIVE_GZIPCRC
p cnf 13 20
-3 6 0
-2 -7 8 0  
-8 2 0  
-8 7 0
-2 -6 9 0  
-9 2 0  
-9 6
-2 -3 10 0 
-10 2 0 
-10 3 0
-2 -3 -6 11 0 
-11 2 0 
-11 3 0
-11 6 0
-4 -6 12 0 
-12 4 0 
-12 6 0
-3 -6 13 0 
-13 3 0 
-13 6 0